c Random CNF formula
p cnf 200 43
87 178 25 0
-110 -119 -173 0
-171 81 -194 0
32 -159 6 0
-93 54 94 0
140 36 178 0
-73 -48 -200 0
47 -14 -15 0
65 192 27 0
-32 -30 -184 0
-156 161 -117 0
174 -187 103 0
20 64 45 0
-147 -67 154 0
87 193 157 0
45 -51 -139 0
158 82 63 0
174 -112 59 0
-39 -44 -103 0
-151 -157 10 0
2 30 19 0
35 -158 -11 0
61 21 -162 0
-179 41 156 0
127 -42 33 0
16 -3 29 0
91 137 -90 0
56 1 -158 0
-72 -86 -11 0
78 -180 -89 0
185 50 20 0
-197 150 -125 0
137 75 170 0
155 22 -55 0
28 23 148 0
35 96 -166 0
18 28 -91 0
16 -112 162 0
99 -95 56 0
149 -131 -25 0
-44 100 130 0
-118 -7 53 0
176 154 -133 0
